param n:= 10;

set T:= 
1
2
3
4
5
6
7
8
9
10
;

set F:= 
100
120
140
160
180
200
A
B
C
E
;

set P:= 
1
2
3
4
5
6
7
;


set TF[1,1]:=
180
;

set TF[1,2]:=
140
;

set TF[1,3]:=
140
;

set TF[1,4]:=
100
;

set TF[1,5]:=
120
;

set TF[1,6]:=
160
;

set TF[1,7]:=
120
;

set TF[1,8]:=
180
;

set TF[1,9]:=
140
;

set TF[1,10]:=
200
;

set TF[2,1]:=
140
;

set TF[2,2]:=
160
;

set TF[2,3]:=
180
;

set TF[2,4]:=
200
;

set TF[2,5]:=
160
;

set TF[2,6]:=
160
;

set TF[2,7]:=
140
;

set TF[2,8]:=
140
;

set TF[2,9]:=
200
;

set TF[2,10]:=
180
;

set TF[3,1]:=
100
;

set TF[3,2]:=
140
;

set TF[3,3]:=
100
;

set TF[3,4]:=
160
;

set TF[3,5]:=
100
;

set TF[3,6]:=
100
;

set TF[3,7]:=
200
;

set TF[3,8]:=
120
;

set TF[3,9]:=
180
;

set TF[3,10]:=
140
;

set TF[4,1]:=

;

set TF[4,2]:=

;

set TF[4,3]:=

;

set TF[4,4]:=

;

set TF[4,5]:=

;

set TF[4,6]:=

;

set TF[4,7]:=

;

set TF[4,8]:=

;

set TF[4,9]:=

;

set TF[4,10]:=

;

set TF[5,1]:=

;

set TF[5,2]:=

;

set TF[5,3]:=

;

set TF[5,4]:=

;

set TF[5,5]:=

;

set TF[5,6]:=

;

set TF[5,7]:=

;

set TF[5,8]:=

;

set TF[5,9]:=

;

set TF[5,10]:=

;

set TF[6,1]:=
A
;

set TF[6,2]:=
E
;

set TF[6,3]:=
E
;

set TF[6,4]:=
C
;

set TF[6,5]:=
B
;

set TF[6,6]:=
C
;

set TF[6,7]:=
C
;

set TF[6,8]:=
A
;

set TF[6,9]:=
C
;

set TF[6,10]:=
C
;

set TF[7,1]:=

;

set TF[7,2]:=

;

set TF[7,3]:=

;

set TF[7,4]:=

;

set TF[7,5]:=

;

set TF[7,6]:=

;

set TF[7,7]:=

;

set TF[7,8]:=

;

set TF[7,9]:=

;

set TF[7,10]:=

;



